(declare-const X String)
; \.myway\.comToolbarUI2Host\x3ASubject\x3Atoxbqyosoe\x2fcpvm
(assert (not (str.in_re X (str.to_re ".myway.com\u{1b}ToolbarUI2Host:Subject:toxbqyosoe/cpvm\u{a}"))))
(check-sat)
